PARAMETER_FILE = even/even_uncomplete_graph_new/seg/par/random196.par
PROBLEM_FILE = even/even_uncomplete_graph_new/seg/mat/random196.tsp
Successes/Runs = 0/10
Cost.min = 1039, Cost.avg = 1039.00, Cost.max = 1039
Gap.min = 0.0000%, Gap.avg = 0.0000%, Gap.max = 0.0000%
Trials.min = 1000, Trials.avg = 1000.0, Trials.max = 1000
Time.min = 1.31 sec., Time.avg = 1.52 sec., Time.max = 1.91 sec.
Time.total = 15.38 sec.
